28
3 0 1 0
3 0 28 0
3 0 26 0
3 0 25 0
3 0 3 0
3 0 19 0
3 0 22 0
3 0 21 0
3 0 20 0
3 0 23 0
3 0 18 0
3 0 17 0
3 0 16 0
4 0 15 8 0
3 0 9 0
3 0 10 0
3 0 12 0
3 0 13 0
3 0 14 0
3 0 33 0
5 0 7 5 2 0
4 0 6 24 0
3 0 4 0
3 0 31 0
4 0 36 34 0
4 0 32 35 0
4 0 27 11 0
4 0 29 30 0
